%nprocshared=1
%mem=10GB
%chk=/share/home/sycai/data/QC/HDAC10/XO/24/XO-24.chk
#p opt=(calcall,nomicro,maxcyc=10) nosymm geom=connectivity
external="/share/home/jwweng/g16XO/developing/external_uxo.py"

Title Card Required

-1 1
 C               -1   30.27980400   44.90022400   35.83999700 L
 H                0   30.19767700   43.90604700   35.39322900 L
 C                0   30.87727500   44.81056700   37.26011700 L
 H                0   30.09286800   44.54401400   37.97355200 L
 H                0   31.27346300   45.78590000   37.56247500 L
 C                0   31.98049100   43.75186500   37.35715600 L
 H                0   32.54767500   43.89265100   38.28531400 L
 H                0   32.69101300   43.83178200   36.52930200 L
 C                0   31.40833900   42.34136800   37.40621500 L
 O                0   32.08129700   41.48212500   36.66208500 L
 O                0   30.43569600   42.05270100   38.10027400 L
 C                0   28.85851600   45.46327600   35.85419500 L
 O                0   27.87600800   44.79319300   35.50757800 L
 H                0   30.92227700   45.50485100   35.18983200 L
 N                0   28.74466800   46.72806300   36.32717400 L
 H                0   29.59331800   47.21867900   36.56738400 L
 C               -1   27.48026200   47.42974300   36.49993500 L
 H                0   26.68926100   46.81228000   36.07026300 L
 H                0   27.26080100   47.59946400   37.55908800 L
 H                0   27.49927400   48.39449600   35.98434200 L
 C               -1   25.64984500   48.39992300   31.40020700 L
 H                0   25.95168700   49.00827900   30.54472400 L
 C                0   25.70966700   46.90185500   31.01213300 L
 H                0   24.95257800   46.74388000   30.23216100 L
 C                0   27.08731900   46.57196900   30.42450900 L
 H                0   27.12630500   45.53934500   30.06428500 L
 H                0   27.32539300   47.22961600   29.58343400 L
 H                0   27.86990200   46.68777800   31.18296300 L
 C                0   25.35000400   45.98826400   32.19827100 L
 H                0   24.38745300   46.30142900   32.61339700 L
 H                0   26.09303600   46.12846000   32.99836300 L
 C                0   25.25929500   44.50601300   31.83328100 L
 H                0   24.92607600   43.90450600   32.68486200 L
 H                0   24.54747500   44.34677800   31.01997200 L
 H                0   26.22588500   44.08163300   31.53168000 L
 C                0   24.22650900   48.81762600   31.76689700 L
 O                0   23.38215300   49.01862500   30.88606700 L
 H                0   26.34771800   48.59318600   32.22242300 L
 N                0   23.94777100   48.91973500   33.09282100 L
 H                0   24.66886900   48.65929000   33.74882000 L
 C               -1   22.59007400   49.11997000   33.60986600 L
 H                0   21.92394800   48.92553300   32.76730900 L
 C                0   22.24902800   48.19057800   34.77657400 L
 H                0   22.72594300   48.55540500   35.69160200 L
 H                0   22.64283600   47.18923300   34.57288200 L
 C                0   20.73414600   48.10755500   34.99456600 L
 H                0   20.52626000   47.50204000   35.88710200 L
 H                0   20.25500600   47.58075800   34.16168200 L
 C                0   20.04836600   49.48141100   35.17960300 L
 O                0   20.70154600   50.37758400   35.75787500 L
 O                0   18.85719000   49.58870600   34.73105900 L
 H                0   22.43702600   50.15857900   33.91235200 L
 C               -1   17.14000700   51.57999200   29.09002300 L
 H                0   17.50246700   51.21468200   28.12291000 L
 C                0   17.41583100   50.54953400   30.19716400 L
 H                0   16.86888300   49.62042600   29.98271800 L
 H                0   17.02621800   50.91566800   31.15508500 L
 C                0   18.90621600   50.22920200   30.35145100 L
 H                0   19.46805800   51.15696200   30.51703200 L
 H                0   19.28843500   49.80129100   29.41415000 L
 C                0   19.24611100   49.28124400   31.50955100 L
 H                0   18.90956700   49.68429800   32.46677100 L
 H                0   20.33450900   49.18505500   31.57079300 L
 N                0   18.67424800   47.95407400   31.31672800 L
 H                0   18.90583100   47.47724000   30.44995300 L
 C                0   17.77513200   47.32063500   32.09342700 L
 N                0   17.16069300   46.25081900   31.56590400 L
 H                0   17.37868700   46.01802100   30.60517600 L
 H                0   16.53664500   45.63526100   32.10796400 L
 N                0   17.48260400   47.73825600   33.32529600 L
 H                0   18.06892100   48.42785100   33.87123200 L
 H                0   16.78050000   47.21347100   33.83080100 L
 H                0   16.06826400   51.77684500   28.99519500 L
 H                0   17.64475300   52.52683300   29.30336100 L
 C               -1   27.05000800   40.80994600   44.20994500 L
 H                0   28.14466300   40.81908800   44.21193200 L
 C                0   26.48409600   39.38771900   44.18689100 L
 H                0   25.40740800   39.43721400   44.34948200 L
 H                0   26.91043600   38.79043700   44.99878300 L
 C                0   26.65630000   38.60068900   42.89599300 L
 O                0   25.96894400   37.58817900   42.68877100 L
 N                0   27.59107800   39.01365100   42.01063500 L
 H                0   28.08137800   39.88704100   42.11468800 L
 H                0   27.60282300   38.58761900   41.09308500 L
 C                0   26.48288900   41.60366100   43.03796500 L
 O                0   25.29627400   41.50187100   42.72220100 L
 H                0   26.73102100   41.29855100   45.13675600 L
 N                0   27.36235100   42.36780200   42.34226800 L
 H                0   28.32286000   42.40855700   42.64949500 L
 C                0   27.01637400   43.00218800   41.06279500 L
 H                0   27.83839600   43.68815300   40.83984600 L
 C                0   26.89461900   41.99237400   39.92853900 L
 H                0   26.60136400   42.51407700   39.01355900 L
 H                0   27.85780400   41.50699400   39.75932100 L
 H                0   26.13380400   41.24046300   40.14688700 L
 C                0   25.74932900   43.86953100   41.20016700 L
 O                0   24.79540200   43.74528600   40.43006100 L
 N                0   25.80990800   44.80666900   42.16330100 L
 H                0   26.61985900   44.83561600   42.76348400 L
 C               -1   24.74999200   45.79007500   42.34006700 L
 H                0   24.49929700   46.21071700   41.35904000 L
 C                0   23.47662300   45.21123500   42.98863700 L
 H                0   23.13337600   44.39263700   42.34553800 L
 C                0   23.76207600   44.61633000   44.37078200 L
 H                0   22.84986300   44.18362100   44.79479000 L
 H                0   24.51238500   43.82181300   44.30904800 L
 H                0   24.12242300   45.38429100   45.06507700 L
 C                0   22.37779200   46.27408000   43.03532400 L
 H                0   21.43114400   45.84411600   43.37933500 L
 H                0   22.64113100   47.09319700   43.71448500 L
 H                0   22.19272900   46.71102700   42.04696500 L
 H                0   25.14986500   46.60212500   42.95672700 L
 N               -1   15.42999300   46.33000700   38.02003100 L
 C                0   16.77169300   46.45957100   37.41283200 L
 H                0   17.46627300   46.93152500   38.11364000 L
 H                0   16.71968200   47.09775500   36.51869300 L
 C                0   17.20564300   45.03791500   37.02962000 L
 H                0   17.64225900   44.54012500   37.90218800 L
 H                0   17.94564800   45.02079100   36.22347900 L
 C                0   15.87093500   44.38365800   36.64723300 L
 H                0   15.86519900   43.29374600   36.70768200 L
 H                0   15.58917200   44.65572400   35.62721000 L
 C                0   14.87132800   45.02277600   37.64554000 L
 H                0   13.88891900   45.12520500   37.16187800 L
 C                0   14.63006900   44.17540900   38.90712100 L
 O                0   14.83992400   44.62744100   40.04040100 L
 H                0   15.50371000   46.33536600   39.03491300 L
 N                0   14.15110800   42.91782400   38.70484600 L
 H                0   14.00653300   42.54140700   37.75952900 L
 C                0   13.53959400   42.17408200   39.79115500 L
 H                0   12.48781600   41.98016500   39.53771900 L
 H                0   13.57523900   42.78829900   40.68900100 L
 C                0   14.12226700   40.80511900   40.15006500 L
 O                0   14.13445600   40.43467800   41.32623500 L
 N                0   14.49384000   39.99246200   39.11871800 L
 H                0   14.30643100   40.34137500   38.16402000 L
 C                0   14.48054100   38.54767300   39.35101700 L
 H                0   13.71522700   38.35624600   40.11439000 L
 C                0   14.06434500   37.76814200   38.09018900 L
 H                0   13.14465300   38.22341200   37.70625500 L
 H                0   13.83483800   36.74975200   38.41315300 L
 C                0   15.11492200   37.71924200   37.02837400 L
 N                0   15.31520000   36.61766800   36.21254300 L
 H                0   14.79356700   35.73873000   36.17638800 L
 C                0   16.34637500   36.88257500   35.37746900 L
 H                0   16.73712600   36.16801600   34.66970000 L
 N                0   16.81530200   38.10110600   35.60260700 L
 C                0   16.06378900   38.63145100   36.63074900 L
 H                0   16.24418300   39.62240400   37.01293300 L
 C                0   15.74373000   37.93434400   39.98352700 L
 O                0   15.76044400   36.71227300   40.19017700 L
 N                0   16.74038900   38.76304900   40.33766100 L
 H                0   16.65566400   39.75042400   40.11858200 L
 C               -1   17.88998900   38.32000300   41.11999200 L
 H                0   17.84271100   37.23489100   41.18192900 L
 C                0   19.21499100   38.78305400   40.51817800 L
 H                0   20.02405200   38.44436800   41.17468000 L
 H                0   19.27010500   39.87225800   40.52226700 L
 C                0   19.46940000   38.31867700   39.12807100 L
 N                0   19.42461500   36.99556600   38.73314300 L
 H                0   19.16799900   36.20742300   39.32591100 L
 C                0   19.79454800   36.92951200   37.43202000 L
 H                0   19.80977500   35.99927700   36.89183300 L
 N                0   20.09115100   38.13545200   36.96049400 L
 C                0   19.87661900   39.01156400   38.01214000 L
 H                0   20.02991000   40.07618500   37.92550200 L
 H                0   17.80937800   38.71830600   42.14118900 L
 C               -1   21.79003500   40.99001400   43.60993700 L
 H                0   22.83246700   41.13679800   43.90600100 L
 C                0   21.33632200   39.53667700   43.90307700 L
 H                0   20.32954200   39.39471500   43.50262100 L
 H                0   21.30379000   39.38143700   44.98415600 L
 C                0   22.26327700   38.52964200   43.23971700 L
 O                0   22.11674900   38.17481500   42.06481100 L
 N                0   23.29336800   38.08306700   43.99908700 L
 H                0   23.40249900   38.39697100   44.95008500 L
 H                0   24.07612900   37.60529200   43.55799000 L
 C                0   21.58691400   41.31049600   42.13761500 L
 O                0   20.44439800   41.45331200   41.68591900 L
 H                0   21.15995300   41.67487900   44.18112200 L
 N                0   22.68254000   41.39023100   41.35150400 L
 H                0   23.61054900   41.34066000   41.75797500 L
 C                0   22.53868300   41.38700400   39.90197600 L
 H                0   22.12435900   40.43865100   39.55990700 L
 H                0   23.53389700   41.52167200   39.46962100 L
 C                0   21.62825800   42.49106600   39.35891700 L
 O                0   20.79812400   42.25047400   38.47855400 L
 N                0   21.84552000   43.71084200   39.88990600 L
 H                0   22.69097600   43.80513700   40.43869200 L
 C                0   21.14357900   44.93664100   39.51953100 L
 H                0   21.74883100   45.74668800   39.93606100 L
 C                0   21.01045200   45.17002700   38.00247800 L
 H                0   20.61681600   46.18584900   37.88627600 L
 H                0   20.23512100   44.50613700   37.61080000 L
 C                0   22.27051700   44.98572000   37.18725500 L
 C                0   23.56086500   45.02960600   37.73403100 L
 H                0   23.70633200   45.19139500   38.79366200 L
 C                0   24.68818700   44.83643400   36.93005600 L
 H                0   25.67792300   44.85901400   37.37788400 L
 C                0   24.55083500   44.61713300   35.56020200 L
 H                0   25.43351800   44.47875400   34.93867300 L
 C                0   23.26995900   44.58573100   35.00075500 L
 H                0   23.13927000   44.42836400   33.93565400 L
 C                0   22.14608500   44.75612000   35.80849100 L
 H                0   21.16195800   44.70540700   35.35515700 L
 C                0   19.75235800   45.09653500   40.18235400 L
 O                0   19.07572500   46.08442900   39.89827600 L
 N                0   19.39855100   44.15825800   41.08794800 L
 H                0   19.98772200   43.34106800   41.20337500 L
 C               -1   18.05006000   44.07003000   41.62994700 L
 H                0   17.44091200   44.82710500   41.13106400 L
 C                0   17.46069300   42.67229800   41.40419100 L
 H                0   16.42276300   42.64098800   41.73939600 L
 H                0   18.03228900   41.92903000   41.96296000 L
 S                0   17.52835400   42.11009200   39.64741200 L
 H                0   16.28230400   42.46650100   39.29103500 L
 H                0   18.05034700   44.28156400   42.70722800 L
 C               -1   11.45994100   34.23010700   33.01008400 L
 H                0   11.27487500   35.30379000   33.03020900 L
 C                0   12.21095500   33.79299700   34.26543800 L
 H                0   12.31138300   32.70196300   34.28167900 L
 H                0   11.64827500   34.05921900   35.16429200 L
 C                0   13.63057400   34.35838400   34.38323300 L H 514   0.0000
 O                0   14.26593100   34.03674800   35.44960500 L
 O                0   14.10841500   35.01570800   33.42608500 L H 514   0.0000
 C                0   12.20976100   33.87129400   31.73248700 L
 O                0   12.78973000   32.78831600   31.57411100 L
 H                0   10.49063600   33.71753000   32.96737200 L
 N                0   12.13981300   34.81745800   30.75443900 L
 H                0   11.78549100   35.73156200   31.02222200 L
 C               -1   12.86963300   34.69081400   29.51058800 L
 H                0   13.12882200   33.63718900   29.38514000 L
 C                0   14.16404200   35.50414700   29.42710800 L
 O                0   14.80381400   35.55920600   28.37813400 L
 H                0   12.24611200   34.98338700   28.65919900 L
 N                0   14.50578700   36.16110100   30.55907900 L
 H                0   14.05870200   35.89927700   31.43567300 L
 C                0   15.76826500   36.87024900   30.65630800 L
 H                0   15.80971200   37.61875700   29.86157500 L
 C                0   15.74391400   37.55010900   32.04274800 L
 H                0   15.71719100   36.77011500   32.81062100 L
 H                0   14.81309100   38.11462200   32.13538300 L
 C                0   16.91403800   38.46164000   32.32114900 L
 O                0   16.78025900   39.70345700   32.39838800 L
 O                0   18.05573800   37.89836800   32.46004300 L H 513   0.0000
 C                0   16.94274900   35.88789000   30.42747500 L
 O                0   16.82591900   34.67160200   30.60921800 L H 514   0.0000
 N                0   18.08768100   36.43879400   29.96787700 L
 H                0   18.16304100   37.45329800   29.88513300 L
 C                0   19.24844200   35.60588100   29.67575400 L
 H                0   18.88189400   34.71308400   29.16404300 L
 C                0   20.23515900   36.35691000   28.74195900 L
 H                0   19.61041600   36.97942900   28.09903200 L
 C                0   21.19782600   37.27466400   29.50431300 L
 H                0   21.75564100   37.89521100   28.79820100 L
 H                0   20.67819000   37.92888200   30.20546900 L
 H                0   21.91923600   36.69083000   30.08724700 L
 C                0   21.00836600   35.38206700   27.84887300 L
 H                0   21.66324900   35.93703000   27.17116000 L
 H                0   21.61522400   34.70750500   28.45973400 L
 H                0   20.32567200   34.77496400   27.24580800 L
 C                0   19.97120200   35.07849300   30.92276300 L
 O                0   20.78492700   34.14690400   30.81559700 L
 N                0   19.70735800   35.70824500   32.07887800 L
 H                0   18.98499600   36.43251300   32.11766800 L
 C                0   20.25901400   35.25813800   33.33204000 L
 H                0   21.10606300   34.60650900   33.09961800 L
 C                0   20.72620500   36.45202900   34.19950100 L
 H                0   21.22903400   36.06921600   35.09234900 L
 H                0   19.84577900   37.00007800   34.54106800 L
 C                0   21.64297100   37.40887100   33.50370700 L
 N                0   21.18277400   38.53407700   32.83218100 L H 513   0.0000
 C                0   22.24590600   39.14490800   32.32185100 L
 H                0   22.21315100   40.05163300   31.74159600 L
 N                0   23.37299700   38.47443500   32.63190400 L
 H                0   24.31994700   38.80861600   32.36630700 L
 C                0   23.01409300   37.37072400   33.38427200 L
 H                0   23.72991200   36.65287100   33.75002700 L
 C                0   19.18946300   34.45739400   34.10269500 L
 O                0   17.99449900   34.51325600   33.80172700 L H 514   0.0000
 N                0   19.62480900   33.70516300   35.13921400 L
 H                0   20.60682300   33.68020000   35.36866500 L
 C               -1   18.69001200   32.91005700   35.93002000 L
 H                0   17.91675800   32.52217000   35.26560400 L
 C                0   18.10298500   33.67772400   37.10807300 L
 O                0   18.84458300   34.04313000   38.03233400 L
 H                0   19.23410000   32.06316300   36.35242800 L
 N                0   16.77354000   33.84269300   37.09707900 L
 H                0   16.21820500   33.62333500   36.27689200 L
 C                0   16.06388300   34.24791000   38.30168300 L
 H                0   14.99922100   34.25670100   38.05740800 L
 H                0   16.35162900   35.24807000   38.62877400 L
 C                0   16.32282600   33.18665100   39.37476600 L
 O                0   16.09020700   31.99504600   39.15350200 L
 N                0   16.85813000   33.64135600   40.53128200 L
 H                0   17.19860200   34.59484200   40.55697500 L
 C               -1   17.49999200   32.70000000   41.43001400 L
 H                0   16.91804200   31.77909200   41.37832800 L
 C                0   18.97160600   32.38914200   41.05795300 L
 H                0   19.08272300   32.48478200   39.97439600 L
 H                0   19.16938000   31.34162000   41.31250400 L
 C                0   20.05286100   33.21888200   41.76976200 L
 H                0   21.03380800   32.76129000   41.60510500 L
 H                0   19.88038900   33.18971100   42.85480100 L
 C                0   20.12296200   34.69149200   41.39149900 L
 O                0   19.12419000   35.33802000   41.05999100 L
 N                0   21.35353900   35.25972800   41.46158600 L
 H                0   22.12659100   34.74103000   41.84801100 L
 H                0   21.44731200   36.27202800   41.43821500 L
 H                0   17.43585900   33.08441700   42.45368800 L
 C               -1   13.52997400   30.00981500   33.43999700 L
 H                0   13.07463800   30.88817200   32.97129400 L
 C                0   14.16179800   30.39724200   34.78784100 L
 H                0   14.75087200   29.54875300   35.14928300 L
 H                0   13.36135700   30.58719200   35.51223600 L
 O                0   15.00890300   31.53924400   34.68858200 L H 514   0.0000
 H                0   14.60257400   32.29959100   35.15630200 L
 C                0   14.53957800   29.33190900   32.52351200 L
 O                0   15.12440200   28.30346900   32.86125900 L
 H                0   12.74078900   29.27580600   33.63813800 L
 N                0   14.72904500   29.90502700   31.29033200 L
 H                0   14.29956500   30.81262300   31.14073200 L
 C               -1   15.96996700   29.63003800   30.58003300 L
 H                0   16.16609800   28.55802200   30.63476200 L
 C                0   17.12033000   30.36742800   31.25578300 L
 O                0   17.08988300   30.68471300   32.44567300 L H 514   0.0000
 H                0   15.86823100   29.92138400   29.53061000 L
 N                0   18.19276500   30.56650300   30.46827000 L
 H                0   18.12916000   30.38528000   29.47735000 L
 C               -1   19.37008900   31.19996100   31.00001600 L
 H                0   19.44441100   32.26386400   30.75185500 L
 H                0   19.37423700   31.08166500   32.08268400 L
 H                0   20.26414000   30.71162400   30.59723200 L
 C               -1   28.28998900   32.16007000   33.52005100 L
 H                0   29.16649900   32.77566100   33.29977200 L
 C                0   27.25867700   32.26152900   32.37241400 L
 H                0   26.40828000   31.61513800   32.61059300 L
 H                0   27.72523800   31.84394200   31.47165800 L
 C                0   26.75254200   33.66007600   32.07494200 L
 C                0   27.62722800   34.74968600   31.95172100 L
 H                0   28.69750500   34.60454300   32.07462600 L
 C                0   27.14363600   36.02417900   31.64549800 L
 H                0   27.83029500   36.86049800   31.55979300 L
 C                0   25.77717100   36.22607800   31.43084700 L
 H                0   25.41955300   37.21712900   31.17181300 L
 C                0   24.89738400   35.14615700   31.54326400 L
 H                0   23.83217100   35.28420100   31.38135500 L
 C                0   25.38451500   33.88178300   31.87611800 L
 H                0   24.69183100   33.05195600   31.98120400 L
 C                0   27.68664100   32.54690000   34.85109100 L
 O                0   27.07062600   31.71960300   35.53228000 L
 H                0   28.62121500   31.12325000   33.60750900 L
 N                0   27.87062000   33.83384200   35.24331600 L
 H                0   28.11298300   34.49412000   34.51571800 L
 C                0   27.18881000   34.37532800   36.41259300 L
 H                0   27.51274200   33.80840000   37.28639900 L
 C                0   27.61016700   35.85084300   36.58688900 L
 H                0   27.35704400   36.39656800   35.67144700 L
 H                0   28.69887900   35.87553000   36.69208400 L
 C                0   26.93504100   36.47599500   37.76734500 L
 C                0   27.35687000   36.44681900   39.08020600 L
 H                0   28.27771300   36.06681200   39.49766700 L
 N                0   26.37245500   36.96519500   39.90379100 L
 H                0   26.33136200   36.91473000   40.92255600 L
 C                0   25.27435400   37.30125700   39.13186800 L
 C                0   24.01518600   37.77151700   39.52248700 L
 H                0   23.75869700   37.94495900   40.56215200 L
 C                0   23.07380500   37.96303000   38.51836100 L
 H                0   22.07430800   38.29081200   38.78296900 L
 C                0   23.38275700   37.73141100   37.15754400 L
 H                0   22.61590900   37.91313000   36.41123500 L
 C                0   24.63690900   37.27406900   36.77776800 L
 H                0   24.86664700   37.09101200   35.73780100 L
 C                0   25.59975200   37.02663100   37.77624300 L
 C                0   25.66180200   34.24499800   36.21628300 L
 O                0   25.16946000   34.57322900   35.13440100 L
 N                0   24.90781900   33.73597000   37.22665400 L
 C                0   23.44323600   33.68634900   37.02036800 L
 H                0   23.20578500   33.00540600   36.20028500 L
 H                0   23.09046500   34.68757000   36.75010200 L
 C                0   22.89537300   33.24544800   38.37748500 L
 H                0   22.89660000   32.15282300   38.45710000 L
 H                0   21.86724100   33.59464900   38.53726600 L
 C                0   23.89644900   33.86066500   39.36237100 L
 H                0   23.90374400   33.39288300   40.34570300 L
 H                0   23.69261600   34.92926700   39.47645200 L
 C                0   25.25755200   33.67459400   38.66272100 L
 H                0   25.92191600   34.50147300   38.91369700 L
 C                0   26.00429500   32.42409500   39.17535400 L
 O                0   26.12426300   32.26844100   40.39585100 L
 N                0   26.58545200   31.61690400   38.26772800 L
 H                0   26.48050100   31.78771800   37.26827800 L
 C               -1   27.50000400   30.54999200   38.66001800 L
 H                0   28.06550000   30.25041700   37.77709400 L
 H                0   28.18124000   30.90340000   39.43816000 L
 H                0   26.96202500   29.67912800   39.05138500 L
 C               -1    9.98042500   38.30951400   33.87941000 L
 H                0   10.63994100   38.77966700   34.61490500 L
 C                0   10.65716400   38.26247800   32.52812800 L
 O                0   11.53798400   37.43433600   32.25064000 L
 H                0    9.78209400   37.28704600   34.20747800 L
 H                0    9.03982600   38.86610300   33.85250600 L
 N                0   10.24367000   39.18420300   31.62637800 L
 H                0    9.60707900   39.91241500   31.91738600 L
 C                0   10.87042700   39.30601000   30.31620000 L
 H                0   11.18230100   38.30007800   30.02722300 L
 C                0    9.88667900   39.87632400   29.29957900 L
 H                0   10.34919100   39.91609800   28.30945300 L
 H                0    8.99323300   39.24967100   29.24421200 L
 H                0    9.60290900   40.89428100   29.57893600 L
 C                0   12.10056300   40.21865400   30.42806800 L
 O                0   11.96116400   41.43667200   30.58561000 L
 N                0   13.29845300   39.59796600   30.35612400 L
 H                0   13.31957400   38.60009000   30.18222700 L
 C                0   14.52198100   40.33718700   30.08877500 L
 H                0   15.34446400   39.97363400   30.71134400 L
 H                0   14.35681800   41.38509400   30.32822600 L
 C                0   14.89368200   40.14921700   28.62353400 L
 O                0   14.90325000   39.03167300   28.10071700 L
 N                0   15.18387900   41.29388100   27.95689100 L
 H                0   15.31182500   42.14738600   28.49992100 L
 C               -1   15.62002300   41.26990300   26.57993400 L
 H                0   15.28029600   40.32821900   26.13732800 L
 C                0   17.13467600   41.33910500   26.39653300 L
 O                0   17.63536900   41.70455700   25.33391700 L
 H                0   15.17316800   42.09260100   26.01870200 L
 N                0   17.85532900   40.93598700   27.47257700 L
 H                0   17.38252700   40.54656700   28.28078600 L
 C                0   19.23726100   40.52355700   27.33660400 L
 H                0   19.71184900   41.19873400   26.61956500 L
 C                0   19.97755500   40.63766200   28.67411600 L
 H                0   20.20106600   41.68309200   28.89185300 L
 H                0   20.93971200   40.12170000   28.58973600 L
 C                0   19.23029800   40.04411500   29.87814400 L
 O                0   18.23457600   39.31843400   29.65884000 L
 O                0   19.71581300   40.35761300   31.01906700 L H 513   0.0000
 C                0   19.37786200   39.14343100   26.65501800 L
 O                0   20.49249900   38.75873000   26.29501200 L
 N                0   18.22473200   38.47685200   26.41402800 L
 H                0   17.38348000   38.77246000   26.88858400 L
 C               -1   18.13999800   37.30001100   25.56998900 L
 H                0   17.78290400   36.43530300   26.14151100 L
 H                0   17.45367700   37.47609100   24.73629200 L
 H                0   19.13733500   37.08637800   25.18694300 L
 C               -1   25.41007200   39.99005900   28.36002100 L
 H                0   26.33473100   39.61957400   28.81538400 L
 C                0   24.33343400   40.22361200   29.42926900 L
 H                0   24.09214000   39.27422100   29.91958100 L
 H                0   23.41066200   40.55865900   28.93951500 L
 C                0   24.72594200   41.26101300   30.49005300 L
 H                0   23.82894900   41.59785200   31.03083700 L
 H                0   25.12874300   42.16315400   30.01986200 L
 C                0   25.71763000   40.82430200   31.58385800 L
 O                0   25.74955700   39.57844500   31.89266800 L
 O                0   26.38563200   41.72980600   32.13089800 L