%nprocshared=1
%mem=10GB
%chk=/share/home/sycai/data/QC/HDAC10/XO2/5/XO2-5.chk
#p opt=(calcall,nomicro,maxcyc=20,maxstep=5,notrust) nosymm geom=connectivity
external="/share/home/jwweng/g16XO/developing/external_uxo.py"

Title Card Required

0 1
 C               -1   30.28001800   44.90002000   35.83994800 L
 H                0   30.89899600   44.02347800   35.64315300 L
 C                0   28.81187300   44.51494200   36.01886900 L
 H                0   28.44367200   44.01166800   35.12028800 L
 H                0   28.19956500   45.41795000   36.13011900 L
 C                0   28.56583100   43.62704300   37.24385500 L
 H                0   27.51469600   43.32011800   37.28215900 L
 H                0   28.75785100   44.17366000   38.17254800 L
 C                0   29.37726000   42.34929600   37.32037600 L
 O                0   29.85755700   41.93127800   36.15888700 L
 O                0   29.53738600   41.73579400   38.37546900 L
 H                0   30.66884600   45.39990300   36.73518200 L
 H                0   30.39916000   45.59307600   35.00037600 L
 C               -1   25.64997300   48.39997500   31.40000500 L
 H                0   25.73351800   48.93242500   30.44671800 L
 C                0   26.11892700   46.94138900   31.26440700 L
 H                0   25.46494400   46.44420900   30.53464600 L
 C                0   27.55375100   46.88514800   30.72405200 L
 H                0   27.89017400   45.85397600   30.57514700 L
 H                0   27.63331500   47.40209500   29.76198600 L
 H                0   28.24926400   47.36626800   31.42216900 L
 C                0   25.97634400   46.17764400   32.59585000 L
 H                0   24.99520000   46.40103100   33.03012100 L
 H                0   26.72037300   46.55940300   33.30863000 L
 C                0   26.11169100   44.65806100   32.46343700 L
 H                0   26.01370400   44.15817100   33.43234500 L
 H                0   25.33387300   44.25299200   31.80766500 L
 H                0   27.07862500   44.35223000   32.04759800 L
 H                0   26.25792600   48.93708200   32.13780300 L
 H                0   24.60609000   48.45176800   31.72821400 L
 C               -1   27.04997100   40.80995600   44.21000300 L
 H                0   28.14186200   40.74560200   44.14831300 L
 C                0   26.40753400   39.41359100   44.19275100 L
 H                0   25.33072100   39.51527000   44.35312700 L
 H                0   26.79021000   38.81091300   45.02344300 L
 C                0   26.55869200   38.56668900   42.93481100 L
 O                0   25.98498800   37.47000000   42.86501800 L
 N                0   27.33050200   39.03035500   41.92395800 L
 H                0   27.69642500   39.97146000   41.89845500 L
 H                0   27.36601600   38.49630200   41.06834900 L
 C                0   26.47148600   41.66135400   43.08794400 L
 O                0   25.25687400   41.76264000   42.90753200 L
 H                0   26.80889200   41.28801000   45.16514200 L
 N                0   27.37831600   42.21487000   42.23897600 L
 H                0   28.35725100   42.22202900   42.48981100 L
 C               -1   26.94005400   42.97002100   41.07015400 L
 H                0   27.77739400   43.59220200   40.74241100 L
 C                0   26.47464900   42.06163100   39.92954500 L
 H                0   26.02674900   42.66869800   39.13593700 L
 H                0   27.32592700   41.52088800   39.50581800 L
 H                0   25.72538100   41.35256600   40.28603100 L
 H                0   26.12658100   43.63402900   41.37619300 L
 N               -1   15.43000100   46.33000700   38.01994800 L
 C                0   16.76759800   46.06558100   38.56085700 L
 H                0   16.74363800   45.73853100   39.61663100 L
 H                0   17.39602500   46.95939400   38.50293000 L
 C                0   17.27890400   44.91028200   37.67521400 L
 H                0   17.92635400   44.23010000   38.24002600 L
 H                0   17.86315900   45.29954800   36.83638400 L
 C                0   15.98528400   44.21590100   37.15468100 L
 H                0   15.95672100   43.14594500   37.38714500 L
 H                0   15.90335900   44.32781200   36.07063100 L
 C               -1   14.83998300   44.97997700   37.84006800 L
 H                0   13.93561100   45.03230300   37.22669800 L
 H                0   14.87512500   46.88964300   38.66237800 L
 H                0   14.57898700   44.50286200   38.80150700 L
 C               -1   14.39000200   38.71000600   39.65000800 L
 H                0   13.64320400   38.67275700   40.45127100 L
 C                0   13.84355700   37.99773400   38.40031300 L
 H                0   12.91550300   38.48759200   38.08204300 L
 H                0   13.58431700   36.97034700   38.67178900 L
 C                0   14.84553400   37.95630900   37.28552600 L
 N                0   14.96613500   36.86373600   36.45139300 L
 H                0   14.31288800   36.03063000   36.41950700 L
 C                0   15.96157200   37.11962500   35.57257000 L
 H                0   16.28358100   36.41689300   34.82289500 L
 N                0   16.49617300   38.31615400   35.79014800 L
 C                0   15.80848800   38.84863600   36.86336900 L
 H                0   16.06321700   39.81810000   37.26624900 L
 C                0   15.64766300   38.00464700   40.14408400 L
 O                0   15.72035200   36.77574200   40.21960800 L
 H                0   14.58996100   39.76602700   39.43969000 L
 N                0   16.66939900   38.82282000   40.51671800 L
 H                0   16.54211200   39.82087300   40.43909000 L
 C               -1   17.89000900   38.32000600   41.12000600 L
 H                0   17.87484800   37.23837400   41.01394600 L
 C                0   19.16345400   38.90678600   40.50832100 L
 H                0   20.00953400   38.50297900   41.07960300 L
 H                0   19.19055000   39.99412400   40.63840700 L
 C                0   19.31797700   38.60000800   39.06099000 L
 N                0   19.09850400   37.34220700   38.53482100 L
 H                0   18.81230700   36.51123700   39.05550800 L
 C                0   19.38689000   37.38786800   37.21407900 L
 H                0   19.24603600   36.52970700   36.58260300 L
 N                0   19.79842200   38.59726500   36.85444400 L
 C                0   19.74081300   39.36878600   38.00358700 L
 H                0   20.01229100   40.41258700   38.01927200 L
 H                0   17.88863800   38.53867400   42.19612300 L
 C               -1   22.53999300   41.62001600   39.92998300 L
 H                0   21.99515300   40.67508900   39.90479000 L
 H                0   23.38606300   41.54647500   39.24598900 L
 C                0   21.62154700   42.74091500   39.44696500 L
 O                0   20.80589800   42.57021800   38.52704500 L
 H                0   22.92556400   41.79132600   40.94192800 L
 N                0   21.78245100   43.93904300   40.05172400 L
 H                0   22.47340100   43.99368200   40.78534800 L
 C               -1   21.15001000   45.19999000   39.62998800 L
 H                0   21.61845100   45.98135800   40.23094600 L
 C                0   21.29623600   45.50338700   38.12085500 L
 H                0   21.10537500   46.57664200   37.99076900 L
 H                0   20.50389300   44.97976200   37.58202400 L
 C                0   22.61944500   45.12159500   37.48789500 L
 C                0   23.84733100   45.26190900   38.15010000 L
 H                0   23.87774800   45.68987100   39.14793100 L
 C                0   25.03909700   44.85426200   37.54455800 L
 H                0   25.97709700   44.97569500   38.07645900 L
 C                0   25.02649200   44.29698700   36.26281300 L
 H                0   25.94136000   43.95058800   35.79399700 L
 C                0   23.81291000   44.17842000   35.58270700 L
 H                0   23.77051400   43.75865700   34.58426300 L
 C                0   22.62511500   44.58029900   36.19535600 L
 H                0   21.69330300   44.45883800   35.64952200 L
 H                0   20.08472900   45.18586700   39.88330100 L
 C               -1   11.46000300   34.22999800   33.01000100 L
 H                0   11.62302000   35.21727200   32.56993300 L
 C                0   11.62244400   34.27207800   34.53231600 L
 H                0   11.46802000   33.27372100   34.96229800 L
 H                0   10.85462200   34.90724000   34.98748400 L
 C                0   12.99070800   34.78447200   35.01908700 L
 O                0   13.12418100   34.92911900   36.27619700 L
 O                0   13.87682800   35.03816100   34.16056600 L
 H                0   10.46102900   33.88350900   32.72610800 L
 H                0   12.19241100   33.55200400   32.55800000 L
 C               -1   15.59001700   37.08000600   30.66001100 L
 H                0   15.71596300   37.89412600   29.93828700 L
 C                0   15.44135400   37.69251000   32.06855300 L
 H                0   15.35360200   36.90720200   32.82485900 L
 H                0   14.52297100   38.28229000   32.10100500 L
 C                0   16.61996900   38.58734800   32.38504300 L
 O                0   16.50285800   39.82703400   32.49893900 L
 O                0   17.76464900   38.01212100   32.47413200 L
 C                0   16.70952800   36.06426500   30.46475700 L
 O                0   16.54916200   34.85029400   30.68657800 L
 H                0   14.66007600   36.55703800   30.41516200 L
 N                0   17.86225100   36.54441600   29.95741100 L
 H                0   17.99040300   37.56045600   29.87353200 L
 C               -1   18.99998300   35.67999200   29.74000300 L
 H                0   19.76316700   36.25867200   29.20751300 L
 H                0   18.73407100   34.82370800   29.11601900 L
 C                0   19.65611500   35.11377300   31.00494700 L
 O                0   20.36465300   34.10579800   30.94561000 L
 N                0   19.44828900   35.82717100   32.13105800 L
 H                0   18.77715500   36.60211500   32.14427300 L
 C                0   20.04220400   35.44107400   33.38442700 L
 H                0   20.92861400   34.83927600   33.16200000 L
 C                0   20.44123200   36.69695700   34.19662500 L
 H                0   20.92279200   36.37510600   35.12386900 L
 H                0   19.53009800   37.23660100   34.46638000 L
 C                0   21.34431900   37.63452900   33.45952700 L
 N                0   20.85201300   38.70322500   32.72374000 L
 C                0   21.90052900   39.30964600   32.17426500 L
 H                0   21.84528400   40.18589100   31.55047800 L
 N                0   23.04413900   38.69053600   32.52165300 L
 H                0   23.99983600   39.00523600   32.24843300 L
 C                0   22.71697300   37.62763200   33.33879400 L
 H                0   23.47987700   36.98788500   33.75127800 L
 C                0   19.04788600   34.59633200   34.20545600 L
 O                0   17.82557800   34.74154700   34.10079800 L
 N                0   19.56711200   33.70007500   35.07601500 L
 H                0   20.56687800   33.60617000   35.17048500 L
 C               -1   18.69001000   32.90999800   35.92999500 L
 H                0   17.95624700   32.38359500   35.31209700 L
 C                0   18.00353800   33.77810200   36.99528800 L
 O                0   18.67047800   34.53798700   37.70194600 L
 H                0   19.29870200   32.16817700   36.45051900 L
 N                0   16.67143700   33.61304300   37.11634100 L
 H                0   16.20978200   32.93087900   36.53283500 L
 C                0   15.92401700   34.10936400   38.27144000 L
 H                0   14.86739900   34.13584100   37.99474800 L
 H                0   16.24756400   35.12134100   38.51334700 L
 C                0   16.15748400   33.11462600   39.41547000 L
 O                0   15.75731700   31.95126800   39.32951900 L
 N                0   16.90508800   33.58750200   40.44297600 L
 H                0   17.27934100   34.52706400   40.38740200 L
 C               -1   17.49999900   32.70000100   41.43000000 L
 H                0   16.89811300   31.78987900   41.42923400 L
 C                0   18.96687200   32.33270000   41.13107300 L
 H                0   19.05365500   32.06600800   40.07208400 L
 H                0   19.20346900   31.42938200   41.70410600 L
 C                0   20.03252100   33.38424600   41.50197500 L
 H                0   21.02113100   32.91626200   41.47103200 L
 H                0   19.86569300   33.71803200   42.53260400 L
 C                0   20.02306900   34.63365800   40.63793700 L
 O                0   19.06438200   35.41951500   40.65246900 L
 N                0   21.11902400   34.85419900   39.88607800 L
 H                0   21.89157200   34.20941200   39.86827600 L
 H                0   21.15842600   35.65724400   39.27262000 L
 H                0   17.42211200   33.15951100   42.42123100 L
 C               -1   27.07998000   34.53004800   36.25005900 L
 H                0   27.19102400   33.70149500   36.95714300 L
 C                0   27.46852600   35.85718100   36.89912200 L
 H                0   27.37862000   36.63644600   36.13644400 L
 H                0   28.52307900   35.83366900   37.19944500 L
 C                0   26.61399000   36.23246600   38.06945900 L
 C                0   26.94058900   36.20641300   39.40815600 L
 H                0   27.86483600   35.90342400   39.88237000 L
 N                0   25.87181200   36.63198300   40.17297900 L
 H                0   25.87810100   36.76739900   41.19243200 L
 C                0   24.82662400   36.94918300   39.33246300 L
 C                0   23.55286000   37.45349400   39.62033300 L
 H                0   23.24238000   37.64354300   40.64408200 L
 C                0   22.70307600   37.70276100   38.54840500 L
 H                0   21.71755700   38.11621800   38.73153000 L
 C                0   23.10645300   37.46005300   37.21415700 L
 H                0   22.41169700   37.69257600   36.41078200 L
 C                0   24.37136900   36.96338300   36.92989800 L
 H                0   24.68235100   36.79481700   35.89902900 L
 C                0   25.25511100   36.70150800   37.99610600 L
 H                0   27.70707900   34.31686500   35.37754700 L
 H                0   26.03672000   34.54731900   35.92331100 L
 C               -1   19.26000000   40.55000300   27.24999400 L
 H                0   19.91663200   40.96057400   26.47646700 L
 C                0   19.88229200   40.73104300   28.63957600 L
 H                0   20.06578900   41.78545000   28.85133100 L
 H                0   20.87063400   40.25009700   28.67802300 L
 C                0   19.07805400   40.14142300   29.80797000 L
 O                0   18.22308300   39.26968200   29.57698500 L
 O                0   19.40501400   40.59809000   30.97261600 L
 H                0   19.08844000   39.49216900   27.03962800 L
 H                0   18.29230100   41.05707400   27.18841000 L
 C               -1   25.40997900   39.98997900   28.35989300 L
 H                0   26.24152200   39.43835500   28.81332700 L
 C                0   24.40335800   40.43863600   29.42920600 L
 H                0   23.97213600   39.55814200   29.91768300 L
 H                0   23.57166300   40.96159800   28.94177800 L
 C                0   24.98985600   41.37303300   30.49653700 L
 H                0   24.16342800   41.86061400   31.03375400 L
 H                0   25.56116600   42.18447400   30.03592400 L
 C                0   25.86480400   40.74009800   31.58574200 L
 O                0   25.54582900   39.57068400   31.99800200 L
 O                0   26.80856100   41.43400300   32.03797000 L
 H                0   24.93786900   39.33734400   27.61933300 L
 H                0   25.83209600   40.85302000   27.83316800 L
 C               -1   13.87000700   42.75001300   33.88001300 L
 H                0   13.65568800   43.03369900   34.91316100 L
 C                0   15.15379700   43.42168100   33.43659700 L
 O                0   15.38688500   44.60760800   33.69884800 L
 H                0   13.04710900   43.10903900   33.25516600 L
 H                0   13.91408500   41.65869000   33.80630500 L
 N                0   16.00835000   42.63968400   32.73552500 L
 H                0   15.83488700   41.64633200   32.60769600 L
 C                0   17.20833100   43.17983700   32.15234800 L
 H                0   18.03996200   42.48855800   32.28970200 L
 H                0   17.44497500   44.10911500   32.68016000 L
 C                0   17.03608300   43.55498400   30.68284600 L
 O                0   15.97650800   43.94737500   30.20447100 L
 N                0   18.19090100   43.45443300   29.96427500 L
 H                0   19.02200400   43.13029700   30.44083500 L
 C                0   18.33243600   44.06138600   28.66495600 L
 H                0   17.34333800   44.43907500   28.39001200 L
 H                0   18.63131300   43.32340100   27.91254400 L
 C                0   19.31771100   45.23350200   28.71646600 L
 O                0   19.31170300   46.04251600   29.63705200 L
 N                0   20.16728500   45.30281100   27.65124900 L
 H                0   20.17530200   44.52738300   27.00432400 L
 C               -1   21.30002500   46.21002600   27.62998500 L
 H                0   21.07187100   47.00665400   28.33978000 L
 C                0   22.62567600   45.51915200   28.02553100 L
 H                0   23.42750600   46.26423200   27.96760000 L
 H                0   22.85865300   44.73816900   27.29129300 L
 C                0   22.52446800   44.93567500   29.40865400 L
 C                0   22.75806500   45.72940300   30.53855900 L
 H                0   23.13679600   46.73972400   30.41200200 L
 C                0   22.47786700   45.26559300   31.81847900 L
 H                0   22.64364000   45.88452100   32.69339100 L
 C                0   21.92174200   43.99360800   31.98794900 L
 O                0   21.61960500   43.59308600   33.24877600 L
 H                0   20.98284900   42.83855200   33.22228000 L
 C                0   21.69754900   43.17279000   30.87463300 L
 H                0   21.23788400   42.19704900   31.00367500 L
 C                0   22.01287900   43.64914500   29.60147300 L
 H                0   21.83412400   43.01440300   28.73863900 L
 H                0   21.39170100   46.65237400   26.63184400 L
 Zn               0   18.97708500   39.65956200   32.71241900 L
 K               -1   15.65001300   33.67002000   32.85998700 L
 N                0   31.16192000   39.70854000   36.39396100 L
 C                0   19.61526300   42.00113400   34.85448900 L
 O                0   19.74461700   41.77230500   33.61854200 L
 N                0   26.49700500   39.73010300   36.03697000 L
 N                0   20.61021300   41.72894900   35.69806100 L
 C                0   27.63937300   39.35267100   36.90612700 L
 C                0   30.11726800   38.78211300   36.88487700 L
 C                0   25.26401800   40.17802700   36.74192100 L
 C                0   21.80953200   41.03467900   35.24230600 L
 C                0   28.83601300   38.94629700   36.04394300 L
 C                0   24.16318300   40.42013200   35.71702100 L
 C                0   22.86689400   40.94234200   36.33573700 L
 C                0   18.36595100   42.61236000   35.41202600 L
 H                0   31.95808300   39.72218300   37.02736200 L
 H                0   30.45081400   41.06377800   36.28736600 L
 H                0   26.81954300   40.53026200   35.41617400 L
 H                0   20.56220400   42.01947100   36.67336500 L
 H                0   27.89111900   40.21444400   37.52392000 L
 H                0   27.32232500   38.53955300   37.56167100 L
 H                0   29.92444900   39.05955400   37.92303000 L
 H                0   30.46065000   37.74139000   36.87574100 L
 H                0   24.97483300   39.40671300   37.46560300 L
 H                0   25.50696200   41.09034100   37.29208600 L
 H                0   21.53254800   40.02824300   34.91806500 L
 H                0   22.21909300   41.56279300   34.38053100 L
 H                0   28.99599800   39.71536000   35.28414100 L
 H                0   28.61020200   38.02847800   35.49794300 L
 H                0   24.52454200   41.14116900   34.97615600 L
 H                0   23.96652200   39.48397400   35.18543600 L
 H                0   22.52216600   40.27686700   37.13660700 L
 H                0   23.03355500   41.93038400   36.78333100 L
 H                0   18.40033800   42.68913200   36.50089000 L
 H                0   17.53330000   41.96751400   35.11943600 L
 H                0   18.19966400   43.59611000   34.96885800 L
 H                0   26.27419500   38.94198500   35.38292200 L
 H                0   31.51129500   39.40351900   35.48676000 L
 O                0   18.53268300   39.58699700   34.70643700 L
 H                0   19.20084700   39.27925800   35.37224700 L
 H                0   17.69611000   39.08796900   35.00181400 L
 O                0   25.99002000   37.94866500   34.01094700 L
 H                0   25.96294300   38.61214800   33.25880700 L
 H                0   26.61054000   37.26427500   33.73412600 L
 O                0   27.35139000   41.78927600   34.55596000 L
 H                0   28.30074600   41.91365000   34.70374300 L
 H                0   27.20190900   41.60512300   33.57687500 L

 1 2 1.0 3 1.0 12 1.0 13 1.0
 2
 3 4 1.0 5 1.0 6 1.0
 4
 5
 6 7 1.0 8 1.0 9 1.0
 7
 8
 9 10 1.0 11 2.0
 10
 11
 12
 13
 14 15 1.0 16 1.0 29 1.0 30 1.0
 15
 16 17 1.0 18 1.0 22 1.0
 17
 18 19 1.0 20 1.0 21 1.0
 19
 20
 21
 22 23 1.0 24 1.0 25 1.0
 23
 24
 25 26 1.0 27 1.0 28 1.0
 26
 27
 28
 29
 30
 31 32 1.0 33 1.0 41 1.0 43 1.0
 32
 33 34 1.0 35 1.0 36 1.0
 34
 35
 36 37 2.0 38 1.0
 37
 38 39 1.0 40 1.0
 39
 40
 41 42 2.0 44 1.0
 42
 43
 44 45 1.0 46 1.0
 45
 46 47 1.0 48 1.0 52 1.0
 47
 48 49 1.0 50 1.0 51 1.0
 49
 50
 51
 52
 53 54 1.0 63 1.0 65 1.0
 54 55 1.0 56 1.0 57 1.0
 55
 56
 57 58 1.0 59 1.0 60 1.0
 58
 59
 60 61 1.0 62 1.0 63 1.0
 61
 62
 63 64 1.0 66 1.0
 64
 65
 66
 67 68 1.0 69 1.0 80 1.0 82 1.0
 68
 69 70 1.0 71 1.0 72 1.0
 70
 71
 72 73 1.0 78 2.0
 73 74 1.0 75 1.0
 74
 75 76 1.0 77 1.0
 76
 77 78 1.0
 78 79 1.0
 79
 80 81 2.0 83 1.0
 81
 82
 83 84 1.0 85 1.0
 84
 85 86 1.0 87 1.0 98 1.0
 86
 87 88 1.0 89 1.0 90 1.0
 88
 89
 90 91 1.0 96 2.0
 91 92 1.0 93 1.0
 92
 93 94 1.0 95 1.0
 94
 95 96 1.0
 96 97 1.0
 97
 98
 99 100 1.0 101 1.0 102 1.0 104 1.0
 100
 101
 102 103 2.0 105 1.0
 103
 104
 105 106 1.0 107 1.0
 106
 107 108 1.0 109 1.0 123 1.0
 108
 109 110 1.0 111 1.0 112 1.0
 110
 111
 112 113 1.0 121 1.0
 113 114 1.0 115 1.0
 114
 115 116 1.0 117 1.0
 116
 117 118 1.0 119 1.0
 118
 119 120 1.0 121 1.0
 120
 121 122 1.0
 122
 123
 124 125 1.0 126 1.0 132 1.0 133 1.0
 125
 126 127 1.0 128 1.0 129 1.0
 127
 128
 129 130 2.0 131 2.0
 130
 131
 132
 133
 134 135 1.0 136 1.0 142 1.0 144 1.0
 135
 136 137 1.0 138 1.0 139 1.0
 137
 138
 139 140 2.0 141 2.0
 140
 141
 142 143 2.0 145 1.0
 143
 144
 145 146 1.0 147 1.0
 146
 147 148 1.0 149 1.0 150 1.0
 148
 149
 150 151 2.0 152 1.0
 151
 152 153 1.0 154 1.0
 153
 154 155 1.0 156 1.0 167 1.0
 155
 156 157 1.0 158 1.0 159 1.0
 157
 158
 159 160 1.0 165 2.0
 160 161 1.0
 161 162 1.0 163 1.0
 162
 163 164 1.0 165 1.0
 164
 165 166 1.0
 166
 167 168 2.0 169 1.0
 168
 169 170 1.0 171 1.0
 170
 171 172 1.0 173 1.0 175 1.0
 172
 173 174 2.0 176 1.0
 174
 175
 176 177 1.0 178 1.0
 177
 178 179 1.0 180 1.0 181 1.0
 179
 180
 181 182 2.0 183 1.0
 182
 183 184 1.0 185 1.0
 184
 185 186 1.0 187 1.0 198 1.0
 186
 187 188 1.0 189 1.0 190 1.0
 188
 189
 190 191 1.0 192 1.0 193 1.0
 191
 192
 193 194 2.0 195 1.0
 194
 195 196 1.0 197 1.0
 196
 197
 198
 199 200 1.0 201 1.0 219 1.0 220 1.0
 200
 201 202 1.0 203 1.0 204 1.0
 202
 203
 204 205 2.0 218 1.0
 205 206 1.0 207 1.0
 206
 207 208 1.0 209 1.0
 208
 209 210 1.0 218 1.0
 210 211 1.0 212 1.0
 211
 212 213 1.0 214 1.0
 213
 214 215 1.0 216 1.0
 215
 216 217 1.0 218 1.0
 217
 218
 219
 220
 221 222 1.0 223 1.0 229 1.0 230 1.0
 222
 223 224 1.0 225 1.0 226 1.0
 224
 225
 226 227 2.0 228 1.0
 227
 228
 229
 230
 231 232 1.0 233 1.0 242 1.0 243 1.0
 232
 233 234 1.0 235 1.0 236 1.0
 234
 235
 236 237 1.0 238 1.0 239 1.0
 237
 238
 239 240 2.0 241 2.0
 240
 241
 242
 243
 244 245 1.0 246 1.0 248 1.0 249 1.0
 245
 246 247 2.0 250 1.0
 247
 248
 249
 250 251 1.0 252 1.0
 251
 252 253 1.0 254 1.0 255 1.0
 253
 254
 255 256 2.0 257 1.0
 256
 257 258 1.0 259 1.0
 258
 259 260 1.0 261 1.0 262 1.0
 260
 261
 262 263 2.0 264 1.0
 263
 264 265 1.0 266 1.0
 265
 266 267 1.0 268 1.0 283 1.0
 267
 268 269 1.0 270 1.0 271 1.0
 269
 270
 271 272 1.0 281 1.0
 272 273 1.0 274 1.0
 273
 274 275 1.0 276 1.0
 275
 276 277 1.0 279 1.0
 277 278 1.0
 278
 279 280 1.0 281 1.0
 280
 281 282 1.0
 282
 283
 284
 285
 286 292 1.0 299 1.0 321 1.0
 287 288 2.0 290 1.0 298 1.0
 288
 289 291 1.0 293 1.0 320 1.0
 290 294 1.0 302 1.0
 291 295 1.0 303 1.0 304 1.0
 292 295 1.0 305 1.0 306 1.0
 293 296 1.0 307 1.0 308 1.0
 294 297 1.0 309 1.0 310 1.0
 295 311 1.0 312 1.0
 296 297 1.0 313 1.0 314 1.0
 297 315 1.0 316 1.0
 298 317 1.0 318 1.0 319 1.0
 299
 300
 301
 302
 303
 304
 305
 306
 307
 308
 309
 310
 311
 312
 313
 314
 315
 316
 317
 318
 319
 320
 321
 322 323 1.0
 323
 324
 325 326 1.0 327 1.0
 326
 327
 328 329 1.0 330 1.0
 329
 330

